
Log started (V11.0.0) Tue May 13 14:12:13 2008

Tried aggregator 1 time.
Reduced MIP has 120 rows, 2001 columns, and 4020 nonzeros.
Presolve time =    0.02 sec.
Clique table members: 100.
MIP emphasis: balance optimality and feasibility.
MIP search method: dynamic search.
Parallel mode: none, using 1 thread.
Root relaxation solution time =    0.05 sec.

        Nodes                                         Cuts/
   Node  Left     Objective  IInf  Best Integer     Best Node    ItCnt     Gap

*     0+    0                        11033.0000      503.1489      250   95.44%
*     0+    0                          509.0000      503.1489      250    1.15%
      0     0      504.0000    30      509.0000      Fract: 6      263    0.98%
*     0+    0                          507.0000      504.0000      263    0.59%
      0     2      504.0000    30      507.0000      504.0000      263    0.59%
    100    21        cutoff            507.0000      504.0000     1949    0.59%
    200    21        cutoff            507.0000      504.0000     3759    0.59%
    300    23      505.0000    34      507.0000      504.0000     5324    0.59%
    400    46      504.0000    25      507.0000      504.0000     6800    0.59%
    500   117      505.0000    22      507.0000      504.0000     8910    0.59%
    600   104      505.0000    22      507.0000      504.0000    11508    0.59%
    700   119      506.0000    30      507.0000      504.0000    14223    0.59%
    800   127      504.0000    44      507.0000      504.0000    17505    0.59%
    900   169      506.0000    30      507.0000      504.0000    20197    0.59%
   1000   252      505.0000    37      507.0000      504.0000    23883    0.59%
Elapsed time =   7.45 sec. (tree size =  0.61 MB, solutions = 3)
   1100   320      506.0000    40      507.0000      504.0000    27768    0.59%
   1200   355      505.0000    37      507.0000      504.0000    33464    0.59%
*  1273+  243                          506.0000      504.0000    35368    0.40%
   1300   266      505.0000    35      506.0000      504.0000    35954    0.40%
   1400   329      505.0000    30      506.0000      504.0000    42731    0.40%
   1500   369      505.0000    37      506.0000      504.0000    49523    0.40%
   1600   444      505.0000    39      506.0000      504.0000    54149    0.40%
   1700   513    infeasible            506.0000      504.0000    57880    0.40%
   1800   598      505.0000    36      506.0000      504.0000    60084    0.40%
   1900   686      505.0000    25      506.0000      504.0000    62737    0.40%
   2000   746      505.0000    26      506.0000      504.0000    66156    0.40%
Elapsed time =  15.64 sec. (tree size =  2.21 MB, solutions = 4)
   2100   825      505.0000    35      506.0000      504.0000    70493    0.40%
   2200   893      505.0000    37      506.0000      504.0000    74451    0.40%
   2300   970      505.0000    37      506.0000      504.0000    79308    0.40%
   2400  1043    infeasible            506.0000      504.0016    82570    0.39%
   2500  1108      505.0000    29      506.0000      505.0000    88881    0.20%
   2600  1184      505.0000    38      506.0000      505.0000    92842    0.20%
   2700  1256      505.0000    47      506.0000      505.0000    97520    0.20%
   2800  1345      505.0000    43      506.0000      505.0000   100326    0.20%
   2900  1421    infeasible            506.0000      505.0000   105181    0.20%
   3000  1501      505.0000    41      506.0000      505.0000   109771    0.20%
Elapsed time =  23.47 sec. (tree size =  4.97 MB, solutions = 4)
   3100  1569      505.0000    44      506.0000      505.0000   117715    0.20%
   3200  1635      505.0000    41      506.0000      505.0000   125583    0.20%
   3300  1695      505.0000    66      506.0000      505.0000   139867    0.20%
   3400  1767      505.0000    60      506.0000      505.0000   151885    0.20%
   3500  1835      505.0000    35      506.0000      505.0000   159735    0.20%
   3600  1905      505.0000    53      506.0000      505.0000   167444    0.20%
   3700  1977      505.0000    53      506.0000      505.0000   176639    0.20%
   3800  2039      505.0000    44      506.0000      505.0000   187134    0.20%
   3900  2091      505.0000    63      506.0000      505.0000   203215    0.20%
   4000  2151      505.0000    69      506.0000      505.0000   218113    0.20%
Elapsed time =  43.41 sec. (tree size =  8.17 MB, solutions = 4)
   4100  2201      505.0000    48      506.0000      505.0000   240076    0.20%
   4200  2263    infeasible            506.0000      505.0000   256995    0.20%
   4300  2293      505.0000    28      506.0000      505.0000   315752    0.20%
   4400  2349      505.0000    56      506.0000      505.0000   342816    0.20%
   4500  2419      505.0000    43      506.0000      505.0000   357512    0.20%
   4600  2469      505.0000    42      506.0000      505.0000   381930    0.20%
   4700  2523      505.0000    46      506.0000      505.0000   398751    0.20%
   4800  2587      505.0000    47      506.0000      505.0000   419592    0.20%
   4900  2641      505.0000    50      506.0000      505.0000   445298    0.20%
   5000  2673      505.0000    20      506.0000      505.0000   494233    0.20%
Elapsed time =  99.77 sec. (tree size = 11.26 MB, solutions = 4)
   5100  2730      505.0000    44      506.0000      505.0000   513327    0.20%
   5200  2760    infeasible            506.0000      505.0000   569993    0.20%
   5300  2802    infeasible            506.0000      505.0000   601448    0.20%
   5400  2854    infeasible            506.0000      505.0000   625511    0.20%
   5500  2906      505.0000    47      506.0000      505.0000   649047    0.20%
   5600  2958      505.0000    51      506.0000      505.0000   667459    0.20%
   5700  3014    infeasible            506.0000      505.0000   689482    0.20%
   5800  3044      505.0000    14      506.0000      505.0000   728428    0.20%
   5900  3078      505.0000    44      506.0000      505.0000   768894    0.20%
   6000  3109      505.0000    35      506.0000      505.0000   809841    0.20%
Elapsed time = 168.67 sec. (tree size = 14.04 MB, solutions = 4)
   6100  3147      505.0000    49      506.0000      505.0000   836924    0.20%
   6200  3203    infeasible            506.0000      505.0000   857329    0.20%
   6300  3241      505.0000    45      506.0000      505.0000   891654    0.20%
   6400  3283      505.0000    24      506.0000      505.0000   926492    0.20%
   6500  3323      505.0000    37      506.0000      505.0000   963883    0.20%
   6600  3353      505.0000    41      506.0000      505.0000  1002977    0.20%
   6700  3393    infeasible            506.0000      505.0000  1036841    0.20%
   6800  3437    infeasible            506.0000      505.0000  1080163    0.20%
   6900  3471    infeasible            506.0000      505.0000  1119844    0.20%
   7000  3511    infeasible            506.0000      505.0000  1153182    0.20%
Elapsed time = 246.27 sec. (tree size = 16.76 MB, solutions = 4)
   7100  3563      505.0000    46      506.0000      505.0000  1182086    0.20%
   7200  3643      505.0000    56      506.0000      505.0000  1191988    0.20%
   7300  3665    infeasible            506.0000      505.0000  1236212    0.20%
   7400  3691      505.0000    18      506.0000      505.0000  1275720    0.20%
   7500  3726      505.0000    39      506.0000      505.0000  1312017    0.20%
   7600  3751      505.0000    56      506.0000      505.0000  1347454    0.20%
   7700  3781    infeasible            506.0000      505.0000  1389924    0.20%
   7800  3841      505.0000    54      506.0000      505.0000  1413195    0.20%
   7900  3880      505.0000    18      506.0000      505.0000  1440865    0.20%
   8000  3908      505.0000    45      506.0000      505.0000  1475028    0.20%
Elapsed time = 320.03 sec. (tree size = 19.53 MB, solutions = 4)
   8100  3960      505.0000    32      506.0000      505.0000  1505358    0.20%
   8200  4018    infeasible            506.0000      505.0000  1526611    0.20%
   8300  4044      505.0000    40      506.0000      505.0000  1564715    0.20%
   8400  4062      505.0000    36      506.0000      505.0000  1614425    0.20%
   8500  4114      505.0000    43      506.0000      505.0000  1644613    0.20%
   8600  4152      505.0000    31      506.0000      505.0000  1676515    0.20%
   8700  4186      505.0000    47      506.0000      505.0000  1712909    0.20%
   8800  4232      505.0000    39      506.0000      505.0000  1741480    0.20%
   8900  4277      505.0000    34      506.0000      505.0000  1771368    0.20%
   9000  4323      505.0000    56      506.0000      505.0000  1798282    0.20%
Elapsed time = 399.78 sec. (tree size = 22.77 MB, solutions = 4)
   9100  4357      505.0000    42      506.0000      505.0000  1849362    0.20%
   9200  4397    infeasible            506.0000      505.0000  1877519    0.20%
   9300  4441    infeasible            506.0000      505.0000  1915354    0.20%
   9400  4485      505.0000    47      506.0000      505.0000  1956733    0.20%
   9500  4531      505.0000    44      506.0000      505.0000  1996081    0.20%
   9600  4569      505.0000    24      506.0000      505.0000  2039146    0.20%
   9700  4611      505.0000    40      506.0000      505.0000  2082000    0.20%
   9800  4659    infeasible            506.0000      505.0000  2120304    0.20%
   9900  4705      505.0000    13      506.0000      505.0000  2151515    0.20%
  10000  4757    infeasible            506.0000      505.0000  2191309    0.20%
Elapsed time = 502.45 sec. (tree size = 26.34 MB, solutions = 4)
  10100  4777      505.0000    43      506.0000      505.0000  2249170    0.20%
  10200  4834    infeasible            506.0000      505.0000  2276569    0.20%
  10300  4865      505.0000    26      506.0000      505.0000  2323522    0.20%
  10400  4907      505.0000    32      506.0000      505.0000  2363288    0.20%
  10500  4955      505.0000    37      506.0000      505.0000  2399492    0.20%
  10600  4987      505.0000    35      506.0000      505.0000  2436612    0.20%
  10700  5031    infeasible            506.0000      505.0000  2478887    0.20%
  10800  5061      505.0000    19      506.0000      505.0000  2531474    0.20%
  10900  5087      505.0000    45      506.0000      505.0000  2571157    0.20%
  11000  5115      505.0000    45      506.0000      505.0000  2625858    0.20%
Elapsed time = 617.98 sec. (tree size = 29.47 MB, solutions = 4)
  11100  5131      505.0000    29      506.0000      505.0000  2673732    0.20%
  11200  5153      505.0000    21      506.0000      505.0000  2709842    0.20%
  11300  5161      505.0000    14      506.0000      505.0000  2758252    0.20%
  11400  5178      505.0000    31      506.0000      505.0000  2810066    0.20%
  11500  5196      505.0000    12      506.0000      505.0000  2882507    0.20%
  11600  5231    infeasible            506.0000      505.0000  2931466    0.20%
  11700  5246    infeasible            506.0000      505.0000  2986045    0.20%
  11800  5146    infeasible            506.0000      505.0000  3132557    0.20%
  11900  5050    infeasible            506.0000      505.0000  3271455    0.20%
  12000  4952    infeasible            506.0000      505.0000  3393421    0.20%
Elapsed time = 816.84 sec. (tree size = 28.83 MB, solutions = 4)
  12100  5010    infeasible            506.0000      505.0000  3413487    0.20%
* 12173+    1                          505.0000      505.0000  3495422    0.00%

Cover cuts applied:  583
Mixed integer rounding cuts applied:  9
Zero-half cuts applied:  1
Gomory fractional cuts applied:  7

Solution pool: 5 solutions saved.

MIP - Integer optimal solution:  Objective = 5.0500000000e+002
Solution time =  846.97 sec.  Iterations = 3495422  Nodes = 12173


Incumbent solution
Variable Name           Solution Value
Cmax                        505.000000
X_1_16                        1.000000
X_2_6                         1.000000
X_3_7                         1.000000
X_4_7                         1.000000
X_5_9                         1.000000
X_6_2                         1.000000
X_7_17                        1.000000
X_8_3                         1.000000
X_9_3                         1.000000
X_10_20                       1.000000
X_11_19                       1.000000
X_12_16                       1.000000
X_13_8                        1.000000
X_14_14                       1.000000
X_15_11                       1.000000
X_16_3                        1.000000
X_17_14                       1.000000
X_18_11                       1.000000
X_19_4                        1.000000
X_20_16                       1.000000
X_21_7                        1.000000
X_22_9                        1.000000
X_23_14                       1.000000
X_24_13                       1.000000
X_25_15                       1.000000
X_26_13                       1.000000
X_27_18                       1.000000
X_28_5                        1.000000
X_29_17                       1.000000
X_30_7                        1.000000
X_31_8                        1.000000
X_32_9                        1.000000
X_33_12                       1.000000
X_34_8                        1.000000
X_35_18                       1.000000
X_36_17                       1.000000
X_37_10                       1.000000
X_38_16                       1.000000
X_39_1                        1.000000
X_40_6                        1.000000
X_41_4                        1.000000
X_42_19                       1.000000
X_43_11                       1.000000
X_44_2                        1.000000
X_45_5                        1.000000
X_46_13                       1.000000
X_47_2                        1.000000
X_48_17                       1.000000
X_49_6                        1.000000
X_50_10                       1.000000
X_51_7                        1.000000
X_52_1                        1.000000
X_53_17                       1.000000
X_54_8                        1.000000
X_55_13                       1.000000
X_56_20                       1.000000
X_57_9                        1.000000
X_58_15                       1.000000
X_59_12                       1.000000
X_60_19                       1.000000
X_61_16                       1.000000
X_62_18                       1.000000
X_63_20                       1.000000
X_64_20                       1.000000
X_65_19                       1.000000
X_66_3                        1.000000
X_67_5                        1.000000
X_68_15                       1.000000
X_69_12                       1.000000
X_70_18                       1.000000
X_71_15                       1.000000
X_72_5                        1.000000
X_73_14                       1.000000
X_74_11                       1.000000
X_75_12                       1.000000
X_76_12                       1.000000
X_77_1                        1.000000
X_78_10                       1.000000
X_79_2                        1.000000
X_80_18                       1.000000
X_81_6                        1.000000
X_82_11                       1.000000
X_83_3                        1.000000
X_84_9                        1.000000
X_85_1                        1.000000
X_86_1                        1.000000
X_87_10                       1.000000
X_88_8                        1.000000
X_89_4                        1.000000
X_90_4                        1.000000
X_91_6                        1.000000
X_92_19                       1.000000
X_93_5                        1.000000
X_94_20                       1.000000
X_95_15                       1.000000
X_96_10                       1.000000
X_97_13                       1.000000
X_98_2                        1.000000
X_99_14                       1.000000
X_100_4                       1.000000
All other variables in the range 1-2001 are 0.
